c cksystemsgroup.github.io/unicorn
c CNF contains a total of 950 clauses.
c CNF contains a total of 243 variables.
c CNF clauses cover 1 bad states.
c Variable name mapping (33 names):
c   1: quotient[bit=0]
c   3: quotient[bit=1]
c   5: quotient[bit=2]
c   8: quotient[bit=3]
c   11: quotient[bit=4]
c   14: quotient[bit=5]
c   17: quotient[bit=6]
c   20: quotient[bit=7]
c   22: ?
c   23: input[bit=4]
c   24: input[bit=0]
c   26: input[bit=1]
c   39: input[bit=2]
c   49: input[bit=3]
c   56: input[bit=4]
c   60: remainder[bit=4]
c   62: remainder[bit=3]
c   64: remainder[bit=2]
c   66: remainder[bit=1]
c   68: remainder[bit=0]
c   117: input[bit=5]
c   127: input[bit=6]
c   135: input[bit=5]
c   137: remainder[bit=5]
c   145: input[bit=6]
c   147: remainder[bit=6]
c   157: input[bit=7]
c   162: remainder[bit=7]
c   165: input[bit=0]
c   174: input[bit=2]
c   182: input[bit=1]
c   230: input[bit=3]
c   237: input[bit=7]
p cnf 243 950
-1 -2 0
1 2 0
-2 -3 4 0
2 -4 0
3 -4 0
-5 -6 0
5 6 0
-4 -6 7 0
4 -7 0
6 -7 0
-8 -9 0
8 9 0
-7 -9 10 0
7 -10 0
9 -10 0
-11 -12 0
11 12 0
-10 -12 13 0
10 -13 0
12 -13 0
-14 -15 0
14 15 0
-13 -15 16 0
13 -16 0
15 -16 0
-17 -18 0
17 18 0
-16 -18 19 0
16 -19 0
18 -19 0
-20 -21 0
20 21 0
-19 -21 22 0
19 -22 0
21 -22 0
-11 -24 25 0
11 -25 0
24 -25 0
-8 -26 27 0
8 -27 0
26 -27 0
-8 -24 28 0
8 -28 0
24 -28 0
-5 -26 29 0
5 -29 0
26 -29 0
-5 -24 30 0
5 -30 0
24 -30 0
-3 -26 31 0
3 -31 0
26 -31 0
-3 -24 32 0
3 -32 0
24 -32 0
-1 -26 33 0
1 -33 0
26 -33 0
-34 0
32 33 -35 0
32 34 -35 0
-33 -34 35 0
33 34 -35 0
-32 -34 35 0
-32 -33 35 0
30 31 -36 0
30 35 -36 0
-31 -35 36 0
31 35 -36 0
-30 -35 36 0
-30 -31 36 0
28 29 -37 0
28 36 -37 0
-29 -36 37 0
29 36 -37 0
-28 -36 37 0
-28 -29 37 0
25 27 37 -38 0
25 27 -37 38 0
25 -27 37 38 0
25 -27 -37 -38 0
-25 27 37 38 0
-25 27 -37 -38 0
-25 -27 37 -38 0
-25 -27 -37 38 0
-5 -39 40 0
5 -40 0
39 -40 0
28 29 36 -41 0
28 29 -36 41 0
28 -29 36 41 0
28 -29 -36 -41 0
-28 29 36 41 0
-28 29 -36 -41 0
-28 -29 36 -41 0
-28 -29 -36 41 0
-3 -39 42 0
3 -42 0
39 -42 0
30 31 35 -43 0
30 31 -35 43 0
30 -31 35 43 0
30 -31 -35 -43 0
-30 31 35 43 0
-30 31 -35 -43 0
-30 -31 35 -43 0
-30 -31 -35 43 0
-1 -39 44 0
1 -44 0
39 -44 0
-45 0
43 44 -46 0
43 45 -46 0
-44 -45 46 0
44 45 -46 0
-43 -45 46 0
-43 -44 46 0
41 42 -47 0
41 46 -47 0
-42 -46 47 0
42 46 -47 0
-41 -46 47 0
-41 -42 47 0
38 40 47 -48 0
38 40 -47 48 0
38 -40 47 48 0
38 -40 -47 -48 0
-38 40 47 48 0
-38 40 -47 -48 0
-38 -40 47 -48 0
-38 -40 -47 48 0
-3 -49 50 0
3 -50 0
49 -50 0
41 42 46 -51 0
41 42 -46 51 0
41 -42 46 51 0
41 -42 -46 -51 0
-41 42 46 51 0
-41 42 -46 -51 0
-41 -42 46 -51 0
-41 -42 -46 51 0
-1 -49 52 0
1 -52 0
49 -52 0
-53 0
51 52 -54 0
51 53 -54 0
-52 -53 54 0
52 53 -54 0
-51 -53 54 0
-51 -52 54 0
48 50 54 -55 0
48 50 -54 55 0
48 -50 54 55 0
48 -50 -54 -55 0
-48 50 54 55 0
-48 50 -54 -55 0
-48 -50 54 -55 0
-48 -50 -54 55 0
-1 -56 57 0
1 -57 0
56 -57 0
-58 0
55 57 58 -59 0
55 57 -58 59 0
55 -57 58 59 0
55 -57 -58 -59 0
-55 57 58 59 0
-55 57 -58 -59 0
-55 -57 58 -59 0
-55 -57 -58 59 0
51 52 53 -61 0
51 52 -53 61 0
51 -52 53 61 0
51 -52 -53 -61 0
-51 52 53 61 0
-51 52 -53 -61 0
-51 -52 53 -61 0
-51 -52 -53 61 0
43 44 45 -63 0
43 44 -45 63 0
43 -44 45 63 0
43 -44 -45 -63 0
-43 44 45 63 0
-43 44 -45 -63 0
-43 -44 45 -63 0
-43 -44 -45 63 0
32 33 34 -65 0
32 33 -34 65 0
32 -33 34 65 0
32 -33 -34 -65 0
-32 33 34 65 0
-32 33 -34 -65 0
-32 -33 34 -65 0
-32 -33 -34 65 0
-1 -24 67 0
1 -67 0
24 -67 0
-67 -68 69 0
67 -69 0
68 -69 0
65 66 -70 0
65 69 -70 0
-66 -69 70 0
66 69 -70 0
-65 -69 70 0
-65 -66 70 0
63 64 -71 0
63 70 -71 0
-64 -70 71 0
64 70 -71 0
-63 -70 71 0
-63 -64 71 0
61 62 -72 0
61 71 -72 0
-62 -71 72 0
62 71 -72 0
-61 -71 72 0
-61 -62 72 0
59 60 72 -73 0
59 60 -72 73 0
59 -60 72 73 0
59 -60 -72 -73 0
-59 60 72 73 0
-59 60 -72 -73 0
-59 -60 72 -73 0
-59 -60 -72 73 0
-23 -73 -74 0
23 74 0
73 74 0
-23 -75 0
23 75 0
-73 -76 0
73 76 0
-75 -76 -77 0
75 77 0
76 77 0
-74 -77 -78 0
74 78 0
77 78 0
78 0
-79 0
-79 0
-20 -24 80 0
20 -80 0
24 -80 0
-17 -26 81 0
17 -81 0
26 -81 0
-17 -24 82 0
17 -82 0
24 -82 0
-14 -26 83 0
14 -83 0
26 -83 0
-14 -24 84 0
14 -84 0
24 -84 0
-11 -26 85 0
11 -85 0
26 -85 0
25 27 -86 0
25 37 -86 0
-27 -37 86 0
27 37 -86 0
-25 -37 86 0
-25 -27 86 0
84 85 -87 0
84 86 -87 0
-85 -86 87 0
85 86 -87 0
-84 -86 87 0
-84 -85 87 0
82 83 -88 0
82 87 -88 0
-83 -87 88 0
83 87 -88 0
-82 -87 88 0
-82 -83 88 0
80 81 88 -89 0
80 81 -88 89 0
80 -81 88 89 0
80 -81 -88 -89 0
-80 81 88 89 0
-80 81 -88 -89 0
-80 -81 88 -89 0
-80 -81 -88 89 0
-14 -39 90 0
14 -90 0
39 -90 0
82 83 87 -91 0
82 83 -87 91 0
82 -83 87 91 0
82 -83 -87 -91 0
-82 83 87 91 0
-82 83 -87 -91 0
-82 -83 87 -91 0
-82 -83 -87 91 0
-11 -39 92 0
11 -92 0
39 -92 0
84 85 86 -93 0
84 85 -86 93 0
84 -85 86 93 0
84 -85 -86 -93 0
-84 85 86 93 0
-84 85 -86 -93 0
-84 -85 86 -93 0
-84 -85 -86 93 0
-8 -39 94 0
8 -94 0
39 -94 0
38 40 -95 0
38 47 -95 0
-40 -47 95 0
40 47 -95 0
-38 -47 95 0
-38 -40 95 0
93 94 -96 0
93 95 -96 0
-94 -95 96 0
94 95 -96 0
-93 -95 96 0
-93 -94 96 0
91 92 -97 0
91 96 -97 0
-92 -96 97 0
92 96 -97 0
-91 -96 97 0
-91 -92 97 0
89 90 97 -98 0
89 90 -97 98 0
89 -90 97 98 0
89 -90 -97 -98 0
-89 90 97 98 0
-89 90 -97 -98 0
-89 -90 97 -98 0
-89 -90 -97 98 0
-11 -49 99 0
11 -99 0
49 -99 0
91 92 96 -100 0
91 92 -96 100 0
91 -92 96 100 0
91 -92 -96 -100 0
-91 92 96 100 0
-91 92 -96 -100 0
-91 -92 96 -100 0
-91 -92 -96 100 0
-8 -49 101 0
8 -101 0
49 -101 0
93 94 95 -102 0
93 94 -95 102 0
93 -94 95 102 0
93 -94 -95 -102 0
-93 94 95 102 0
-93 94 -95 -102 0
-93 -94 95 -102 0
-93 -94 -95 102 0
-5 -49 103 0
5 -103 0
49 -103 0
48 50 -104 0
48 54 -104 0
-50 -54 104 0
50 54 -104 0
-48 -54 104 0
-48 -50 104 0
102 103 -105 0
102 104 -105 0
-103 -104 105 0
103 104 -105 0
-102 -104 105 0
-102 -103 105 0
100 101 -106 0
100 105 -106 0
-101 -105 106 0
101 105 -106 0
-100 -105 106 0
-100 -101 106 0
98 99 106 -107 0
98 99 -106 107 0
98 -99 106 107 0
98 -99 -106 -107 0
-98 99 106 107 0
-98 99 -106 -107 0
-98 -99 106 -107 0
-98 -99 -106 107 0
-8 -56 108 0
8 -108 0
56 -108 0
100 101 105 -109 0
100 101 -105 109 0
100 -101 105 109 0
100 -101 -105 -109 0
-100 101 105 109 0
-100 101 -105 -109 0
-100 -101 105 -109 0
-100 -101 -105 109 0
-5 -56 110 0
5 -110 0
56 -110 0
102 103 104 -111 0
102 103 -104 111 0
102 -103 104 111 0
102 -103 -104 -111 0
-102 103 104 111 0
-102 103 -104 -111 0
-102 -103 104 -111 0
-102 -103 -104 111 0
-3 -56 112 0
3 -112 0
56 -112 0
55 57 -113 0
55 58 -113 0
-57 -58 113 0
57 58 -113 0
-55 -58 113 0
-55 -57 113 0
111 112 -114 0
111 113 -114 0
-112 -113 114 0
112 113 -114 0
-111 -113 114 0
-111 -112 114 0
109 110 -115 0
109 114 -115 0
-110 -114 115 0
110 114 -115 0
-109 -114 115 0
-109 -110 115 0
107 108 115 -116 0
107 108 -115 116 0
107 -108 115 116 0
107 -108 -115 -116 0
-107 108 115 116 0
-107 108 -115 -116 0
-107 -108 115 -116 0
-107 -108 -115 116 0
-5 -117 118 0
5 -118 0
117 -118 0
109 110 114 -119 0
109 110 -114 119 0
109 -110 114 119 0
109 -110 -114 -119 0
-109 110 114 119 0
-109 110 -114 -119 0
-109 -110 114 -119 0
-109 -110 -114 119 0
-3 -117 120 0
3 -120 0
117 -120 0
111 112 113 -121 0
111 112 -113 121 0
111 -112 113 121 0
111 -112 -113 -121 0
-111 112 113 121 0
-111 112 -113 -121 0
-111 -112 113 -121 0
-111 -112 -113 121 0
-1 -117 122 0
1 -122 0
117 -122 0
-123 0
121 122 -124 0
121 123 -124 0
-122 -123 124 0
122 123 -124 0
-121 -123 124 0
-121 -122 124 0
119 120 -125 0
119 124 -125 0
-120 -124 125 0
120 124 -125 0
-119 -124 125 0
-119 -120 125 0
116 118 125 -126 0
116 118 -125 126 0
116 -118 125 126 0
116 -118 -125 -126 0
-116 118 125 126 0
-116 118 -125 -126 0
-116 -118 125 -126 0
-116 -118 -125 126 0
-3 -127 128 0
3 -128 0
127 -128 0
119 120 124 -129 0
119 120 -124 129 0
119 -120 124 129 0
119 -120 -124 -129 0
-119 120 124 129 0
-119 120 -124 -129 0
-119 -120 124 -129 0
-119 -120 -124 129 0
-1 -127 130 0
1 -130 0
127 -130 0
-131 0
129 130 -132 0
129 131 -132 0
-130 -131 132 0
130 131 -132 0
-129 -131 132 0
-129 -130 132 0
126 128 -133 0
126 132 -133 0
-128 -132 133 0
128 132 -133 0
-126 -132 133 0
-126 -128 133 0
-133 0
98 99 -134 0
98 106 -134 0
-99 -106 134 0
99 106 -134 0
-98 -106 134 0
-98 -99 134 0
-134 0
121 122 123 -136 0
121 122 -123 136 0
121 -122 123 136 0
121 -122 -123 -136 0
-121 122 123 136 0
-121 122 -123 -136 0
-121 -122 123 -136 0
-121 -122 -123 136 0
59 60 -138 0
59 72 -138 0
-60 -72 138 0
60 72 -138 0
-59 -72 138 0
-59 -60 138 0
136 137 138 -139 0
136 137 -138 139 0
136 -137 138 139 0
136 -137 -138 -139 0
-136 137 138 139 0
-136 137 -138 -139 0
-136 -137 138 -139 0
-136 -137 -138 139 0
-135 -139 -140 0
135 140 0
139 140 0
-135 -141 0
135 141 0
-139 -142 0
139 142 0
-141 -142 -143 0
141 143 0
142 143 0
-140 -143 -144 0
140 144 0
143 144 0
144 0
129 130 131 -146 0
129 130 -131 146 0
129 -130 131 146 0
129 -130 -131 -146 0
-129 130 131 146 0
-129 130 -131 -146 0
-129 -130 131 -146 0
-129 -130 -131 146 0
136 137 -148 0
136 138 -148 0
-137 -138 148 0
137 138 -148 0
-136 -138 148 0
-136 -137 148 0
146 147 148 -149 0
146 147 -148 149 0
146 -147 148 149 0
146 -147 -148 -149 0
-146 147 148 149 0
-146 147 -148 -149 0
-146 -147 148 -149 0
-146 -147 -148 149 0
-145 -149 -150 0
145 150 0
149 150 0
-145 -151 0
145 151 0
-149 -152 0
149 152 0
-151 -152 -153 0
151 153 0
152 153 0
-150 -153 -154 0
150 154 0
153 154 0
154 0
107 108 -155 0
107 115 -155 0
-108 -115 155 0
108 115 -155 0
-107 -115 155 0
-107 -108 155 0
-155 0
126 128 132 -156 0
126 128 -132 156 0
126 -128 132 156 0
126 -128 -132 -156 0
-126 128 132 156 0
-126 128 -132 -156 0
-126 -128 132 -156 0
-126 -128 -132 156 0
-1 -157 158 0
1 -158 0
157 -158 0
-159 0
156 158 -160 0
156 159 -160 0
-158 -159 160 0
158 159 -160 0
-156 -159 160 0
-156 -158 160 0
-160 0
156 158 159 -161 0
156 158 -159 161 0
156 -158 159 161 0
156 -158 -159 -161 0
-156 158 159 161 0
-156 158 -159 -161 0
-156 -158 159 -161 0
-156 -158 -159 161 0
146 147 -163 0
146 148 -163 0
-147 -148 163 0
147 148 -163 0
-146 -148 163 0
-146 -147 163 0
161 162 -164 0
161 163 -164 0
-162 -163 164 0
162 163 -164 0
-161 -163 164 0
-161 -162 164 0
-164 0
67 68 -166 0
67 -68 166 0
-67 68 166 0
-67 -68 -166 0
-165 -166 -167 0
165 167 0
166 167 0
-165 -168 0
165 168 0
-166 -169 0
166 169 0
-168 -169 -170 0
168 170 0
169 170 0
-167 -170 -171 0
167 171 0
170 171 0
171 0
89 90 -172 0
89 97 -172 0
-90 -97 172 0
90 97 -172 0
-89 -97 172 0
-89 -90 172 0
-172 0
80 81 -173 0
80 88 -173 0
-81 -88 173 0
81 88 -173 0
-80 -88 173 0
-80 -81 173 0
-173 0
63 64 70 -175 0
63 64 -70 175 0
63 -64 70 175 0
63 -64 -70 -175 0
-63 64 70 175 0
-63 64 -70 -175 0
-63 -64 70 -175 0
-63 -64 -70 175 0
-174 -175 -176 0
174 176 0
175 176 0
-174 -177 0
174 177 0
-175 -178 0
175 178 0
-177 -178 -179 0
177 179 0
178 179 0
-176 -179 -180 0
176 180 0
179 180 0
180 0
116 118 -181 0
116 125 -181 0
-118 -125 181 0
118 125 -181 0
-116 -125 181 0
-116 -118 181 0
-181 0
65 66 69 -183 0
65 66 -69 183 0
65 -66 69 183 0
65 -66 -69 -183 0
-65 66 69 183 0
-65 66 -69 -183 0
-65 -66 69 -183 0
-65 -66 -69 183 0
-182 -183 -184 0
182 184 0
183 184 0
-182 -185 0
182 185 0
-183 -186 0
183 186 0
-185 -186 -187 0
185 187 0
186 187 0
-184 -187 -188 0
184 188 0
187 188 0
188 0
-189 0
-157 -190 0
157 190 0
-191 0
-127 -192 0
127 192 0
-193 0
-117 -194 0
117 194 0
-195 0
-56 -196 0
56 196 0
-197 0
-49 -198 0
49 198 0
-199 0
-39 -200 0
39 200 0
-201 0
-26 -202 0
26 202 0
-203 0
-24 -204 0
24 204 0
202 203 -205 0
202 204 -205 0
-203 -204 205 0
203 204 -205 0
-202 -204 205 0
-202 -203 205 0
200 201 -206 0
200 205 -206 0
-201 -205 206 0
201 205 -206 0
-200 -205 206 0
-200 -201 206 0
198 199 -207 0
198 206 -207 0
-199 -206 207 0
199 206 -207 0
-198 -206 207 0
-198 -199 207 0
196 197 -208 0
196 207 -208 0
-197 -207 208 0
197 207 -208 0
-196 -207 208 0
-196 -197 208 0
194 195 -209 0
194 208 -209 0
-195 -208 209 0
195 208 -209 0
-194 -208 209 0
-194 -195 209 0
192 193 -210 0
192 209 -210 0
-193 -209 210 0
193 209 -210 0
-192 -209 210 0
-192 -193 210 0
190 191 -211 0
190 210 -211 0
-191 -210 211 0
191 210 -211 0
-190 -210 211 0
-190 -191 211 0
-211 -212 0
211 212 0
190 191 210 -213 0
190 191 -210 213 0
190 -191 210 213 0
190 -191 -210 -213 0
-190 191 210 213 0
-190 191 -210 -213 0
-190 -191 210 -213 0
-190 -191 -210 213 0
192 193 209 -214 0
192 193 -209 214 0
192 -193 209 214 0
192 -193 -209 -214 0
-192 193 209 214 0
-192 193 -209 -214 0
-192 -193 209 -214 0
-192 -193 -209 214 0
194 195 208 -215 0
194 195 -208 215 0
194 -195 208 215 0
194 -195 -208 -215 0
-194 195 208 215 0
-194 195 -208 -215 0
-194 -195 208 -215 0
-194 -195 -208 215 0
196 197 207 -216 0
196 197 -207 216 0
196 -197 207 216 0
196 -197 -207 -216 0
-196 197 207 216 0
-196 197 -207 -216 0
-196 -197 207 -216 0
-196 -197 -207 216 0
198 199 206 -217 0
198 199 -206 217 0
198 -199 206 217 0
198 -199 -206 -217 0
-198 199 206 217 0
-198 199 -206 -217 0
-198 -199 206 -217 0
-198 -199 -206 217 0
200 201 205 -218 0
200 201 -205 218 0
200 -201 205 218 0
200 -201 -205 -218 0
-200 201 205 218 0
-200 201 -205 -218 0
-200 -201 205 -218 0
-200 -201 -205 218 0
202 203 204 -219 0
202 203 -204 219 0
202 -203 204 219 0
202 -203 -204 -219 0
-202 203 204 219 0
-202 203 -204 -219 0
-202 -203 204 -219 0
-202 -203 -204 219 0
-204 -220 0
204 220 0
-68 -220 221 0
68 -221 0
220 -221 0
66 219 -222 0
66 221 -222 0
-219 -221 222 0
219 221 -222 0
-66 -221 222 0
-66 -219 222 0
64 218 -223 0
64 222 -223 0
-218 -222 223 0
218 222 -223 0
-64 -222 223 0
-64 -218 223 0
62 217 -224 0
62 223 -224 0
-217 -223 224 0
217 223 -224 0
-62 -223 224 0
-62 -217 224 0
60 216 -225 0
60 224 -225 0
-216 -224 225 0
216 224 -225 0
-60 -224 225 0
-60 -216 225 0
137 215 -226 0
137 225 -226 0
-215 -225 226 0
215 225 -226 0
-137 -225 226 0
-137 -215 226 0
147 214 -227 0
147 226 -227 0
-214 -226 227 0
214 226 -227 0
-147 -226 227 0
-147 -214 227 0
162 213 -228 0
162 227 -228 0
-213 -227 228 0
213 227 -228 0
-162 -227 228 0
-162 -213 228 0
189 212 228 -229 0
189 212 -228 229 0
189 -212 228 229 0
189 -212 -228 -229 0
-189 212 228 229 0
-189 212 -228 -229 0
-189 -212 228 -229 0
-189 -212 -228 229 0
229 0
61 62 71 -231 0
61 62 -71 231 0
61 -62 71 231 0
61 -62 -71 -231 0
-61 62 71 231 0
-61 62 -71 -231 0
-61 -62 71 -231 0
-61 -62 -71 231 0
-230 -231 -232 0
230 232 0
231 232 0
-230 -233 0
230 233 0
-231 -234 0
231 234 0
-233 -234 -235 0
233 235 0
234 235 0
-232 -235 -236 0
232 236 0
235 236 0
236 0
161 162 163 -238 0
161 162 -163 238 0
161 -162 163 238 0
161 -162 -163 -238 0
-161 162 163 238 0
-161 162 -163 -238 0
-161 -162 163 -238 0
-161 -162 -163 238 0
-237 -238 -239 0
237 239 0
238 239 0
-237 -240 0
237 240 0
-238 -241 0
238 241 0
-240 -241 -242 0
240 242 0
241 242 0
-239 -242 -243 0
239 243 0
242 243 0
243 0
22 0
